QPLIB_3693
QBB
maximize
1128 # number of variables
2208 # number of quadratic terms in objective
2 1 4.0
119 1 -4.0
503 1 -4.0
699 1 4.0
131 2 -4.0
519 2 -4.0
870 2 4.0
135 3 -4.0
524 3 -4.0
525 3 4.0
546 3 4.0
62 4 4.0
487 4 -4.0
890 4 4.0
935 4 -4.0
6 5 4.0
11 5 4.0
14 5 -4.0
475 5 -4.0
271 6 4.0
460 6 -4.0
498 6 -4.0
505 7 4.0
523 7 -4.0
547 7 -4.0
573 7 4.0
9 8 -4.0
17 8 4.0
937 8 4.0
940 8 -4.0
25 9 4.0
603 9 4.0
673 9 -4.0
259 10 4.0
382 10 4.0
448 10 -4.0
476 10 -4.0
54 11 -4.0
382 11 -4.0
733 11 4.0
62 12 -4.0
383 12 -4.0
760 12 4.0
994 12 4.0
495 13 -4.0
585 13 -4.0
856 13 4.0
950 13 4.0
65 14 -4.0
688 14 4.0
1079 14 4.0
142 15 -4.0
499 15 4.0
620 15 4.0
655 15 -4.0
384 16 -4.0
487 16 -4.0
802 16 4.0
939 16 4.0
384 17 -4.0
805 17 4.0
894 17 -4.0
19 18 -4.0
77 18 -4.0
902 18 4.0
1005 18 4.0
92 19 4.0
93 19 4.0
767 19 -4.0
78 20 -4.0
382 20 -4.0
649 20 4.0
1014 20 4.0
153 21 -4.0
477 21 4.0
591 21 4.0
694 21 -4.0
23 22 4.0
186 22 4.0
198 22 -4.0
747 22 -4.0
145 23 4.0
395 23 -4.0
402 23 -4.0
25 24 4.0
383 24 -4.0
764 24 4.0
942 24 -4.0
1124 25 -4.0
1127 25 -4.0
94 26 -4.0
854 26 -4.0
953 26 4.0
1068 26 4.0
463 27 4.0
563 27 4.0
564 27 -4.0
739 27 -4.0
478 28 4.0
596 28 4.0
824 28 -4.0
969 28 -4.0
30 29 4.0
173 29 4.0
209 29 -4.0
702 29 -4.0
133 30 4.0
393 30 -4.0
399 30 -4.0
229 31 4.0
267 31 4.0
991 31 -4.0
1057 31 -4.0
33 32 4.0
384 32 -4.0
719 32 4.0
997 32 -4.0
1057 33 4.0
1058 33 -4.0
1061 33 -4.0
35 34 4.0
107 34 -4.0
809 34 -4.0
1008 34 4.0
45 35 -4.0
420 35 -4.0
1003 35 4.0
53 36 4.0
585 36 -4.0
727 36 -4.0
1008 36 4.0
38 37 4.0
450 37 4.0
593 37 -4.0
783 37 -4.0
313 38 4.0
538 38 -4.0
1024 38 -4.0
129 39 4.0
479 39 -4.0
500 39 4.0
624 39 -4.0
41 40 4.0
42 40 -4.0
158 40 4.0
218 40 -4.0
391 41 -4.0
397 41 -4.0
877 41 4.0
185 42 4.0
402 42 -4.0
749 42 4.0
44 43 4.0
91 43 -4.0
665 43 4.0
880 43 -4.0
103 44 -4.0
158 44 -4.0
159 44 4.0
165 45 4.0
850 45 -4.0
951 45 4.0
118 46 4.0
501 46 -4.0
517 46 4.0
658 46 -4.0
48 47 4.0
49 47 -4.0
146 47 4.0
922 47 -4.0
70 48 -4.0
395 48 -4.0
921 48 4.0
197 49 4.0
407 49 -4.0
792 49 4.0
51 50 4.0
105 50 -4.0
708 50 4.0
836 50 -4.0
113 51 -4.0
146 51 -4.0
982 51 4.0
115 52 4.0
386 52 4.0
394 52 -4.0
1071 52 -4.0
231 53 -4.0
386 53 -4.0
814 53 4.0
152 54 4.0
778 54 -4.0
908 54 4.0
111 55 4.0
518 55 -4.0
539 55 4.0
697 55 -4.0
569 56 -4.0
626 56 4.0
975 56 4.0
1102 56 -4.0
58 57 -4.0
134 57 4.0
878 57 -4.0
975 57 4.0
208 58 4.0
412 58 -4.0
834 58 4.0
60 59 4.0
571 59 -4.0
752 59 4.0
793 59 -4.0
120 60 -4.0
134 60 -4.0
1044 60 4.0
708 61 -4.0
752 61 4.0
796 61 4.0
841 61 -4.0
222 62 -4.0
508 62 4.0
415 63 4.0
769 63 -4.0
1001 63 -4.0
1005 63 4.0
106 64 4.0
387 64 4.0
392 64 -4.0
1007 64 -4.0
141 65 4.0
819 65 -4.0
863 65 4.0
67 66 4.0
284 66 4.0
389 66 -4.0
562 66 -4.0
140 67 4.0
141 67 -4.0
618 67 -4.0
539 68 -4.0
565 68 4.0
963 68 4.0
1025 68 -4.0
100 69 4.0
540 69 -4.0
565 69 4.0
743 69 -4.0
71 70 4.0
72 70 -4.0
87 70 4.0
170 71 -4.0
699 71 -4.0
790 71 4.0
286 72 4.0
481 72 -4.0
701 72 4.0
544 73 -4.0
750 73 -4.0
795 73 4.0
1108 73 4.0
665 74 -4.0
754 74 4.0
795 74 4.0
885 74 -4.0
419 75 4.0
809 75 -4.0
950 75 4.0
1064 75 -4.0
93 76 4.0
388 76 4.0
390 76 -4.0
952 76 -4.0
388 77 -4.0
584 77 4.0
904 77 4.0
127 78 4.0
817 78 4.0
865 78 -4.0
80 79 4.0
272 79 4.0
396 79 -4.0
1023 79 -4.0
127 80 -4.0
589 80 -4.0
1084 80 4.0
82 81 4.0
517 81 -4.0
594 81 4.0
1090 81 -4.0
272 82 -4.0
377 82 4.0
912 82 -4.0
566 83 -4.0
594 83 4.0
742 83 4.0
786 83 -4.0
206 84 4.0
503 84 -4.0
742 84 4.0
969 84 -4.0
155 85 -4.0
391 85 4.0
660 85 -4.0
832 85 4.0
296 86 4.0
391 86 -4.0
504 86 -4.0
662 86 4.0
391 87 -4.0
1040 87 4.0
1106 87 -4.0
89 88 4.0
522 88 -4.0
706 88 -4.0
839 88 4.0
113 89 4.0
400 89 -4.0
570 89 -4.0
91 90 -4.0
189 90 4.0
839 90 4.0
929 90 -4.0
265 91 4.0
630 91 4.0
423 92 4.0
426 92 -4.0
854 92 -4.0
901 93 -4.0
903 93 -4.0
203 94 4.0
390 94 -4.0
858 94 4.0
96 95 4.0
261 95 4.0
398 95 -4.0
1088 95 -4.0
561 96 -4.0
909 96 -4.0
1019 96 4.0
261 97 -4.0
370 97 4.0
450 97 4.0
868 97 -4.0
595 98 -4.0
622 98 4.0
785 98 4.0
827 98 -4.0
100 99 -4.0
195 99 4.0
659 99 -4.0
785 99 4.0
263 100 -4.0
828 100 4.0
143 101 -4.0
355 101 4.0
393 101 4.0
625 101 -4.0
307 102 4.0
314 102 4.0
393 102 -4.0
520 102 -4.0
157 103 4.0
482 103 4.0
978 103 -4.0
105 104 -4.0
175 104 4.0
883 104 4.0
986 104 -4.0
277 105 4.0
599 105 4.0
854 106 4.0
855 106 -4.0
857 106 -4.0
213 107 4.0
392 107 -4.0
812 107 4.0
349 108 4.0
389 108 4.0
462 108 -4.0
1018 108 -4.0
251 109 -4.0
366 109 4.0
463 109 4.0
823 109 -4.0
111 110 -4.0
183 110 4.0
225 110 -4.0
826 110 4.0
252 111 -4.0
870 111 4.0
130 112 -4.0
361 112 4.0
395 112 4.0
597 112 -4.0
145 113 4.0
921 113 -4.0
160 114 4.0
571 114 -4.0
926 114 4.0
1048 114 -4.0
809 115 4.0
810 115 -4.0
811 115 -4.0
223 116 4.0
394 116 -4.0
420 116 -4.0
772 116 4.0
118 117 -4.0
169 117 4.0
744 117 -4.0
869 117 4.0
243 118 -4.0
335 118 4.0
831 119 4.0
873 119 4.0
1102 119 -4.0
133 120 4.0
877 120 -4.0
1108 120 4.0
148 121 4.0
544 121 -4.0
983 121 4.0
1115 121 -4.0
123 122 4.0
758 122 -4.0
938 122 4.0
993 122 -4.0
323 123 4.0
576 123 -4.0
757 123 -4.0
769 124 4.0
770 124 -4.0
771 124 -4.0
1072 124 4.0
126 125 4.0
139 125 4.0
392 125 -4.0
475 125 -4.0
1072 126 4.0
1073 126 -4.0
1076 126 -4.0
250 127 -4.0
867 127 4.0
129 128 -4.0
154 128 4.0
788 128 -4.0
913 128 4.0
237 129 -4.0
327 129 4.0
131 130 4.0
132 130 -4.0
875 130 4.0
154 131 -4.0
307 131 4.0
183 132 -4.0
973 132 4.0
1033 132 4.0
833 133 -4.0
835 133 -4.0
792 134 4.0
793 134 -4.0
176 135 4.0
798 135 -4.0
928 135 4.0
137 136 4.0
713 136 -4.0
892 136 4.0
1058 136 -4.0
317 137 4.0
550 137 -4.0
712 137 -4.0
496 138 4.0
1008 138 4.0
1009 138 -4.0
1011 138 -4.0
319 139 4.0
496 139 -4.0
647 139 -4.0
241 140 4.0
820 140 -4.0
864 140 -4.0
241 141 -4.0
821 141 4.0
181 142 4.0
518 142 -4.0
695 142 4.0
144 143 -4.0
918 143 4.0
971 143 4.0
195 144 -4.0
328 144 4.0
1036 144 4.0
337 145 -4.0
791 145 -4.0
750 146 -4.0
834 146 4.0
148 147 -4.0
161 147 4.0
526 147 -4.0
985 147 4.0
599 148 -4.0
1049 148 4.0
150 149 4.0
671 149 -4.0
846 149 4.0
1124 149 -4.0
309 150 4.0
528 150 -4.0
669 150 -4.0
396 151 4.0
537 151 4.0
818 151 -4.0
866 151 -4.0
396 152 -4.0
537 152 -4.0
779 152 4.0
168 153 4.0
540 153 -4.0
656 153 4.0
440 154 -4.0
1034 154 4.0
156 155 -4.0
974 155 4.0
1034 155 4.0
206 156 -4.0
336 156 4.0
1101 156 4.0
346 157 -4.0
747 157 4.0
748 157 -4.0
217 158 4.0
706 158 -4.0
352 159 -4.0
521 159 4.0
924 159 -4.0
408 160 -4.0
630 160 -4.0
987 160 4.0
408 161 -4.0
467 161 4.0
485 161 -4.0
299 162 4.0
507 162 -4.0
633 162 -4.0
802 162 4.0
164 163 4.0
165 163 4.0
851 163 -4.0
1062 163 -4.0
447 164 -4.0
404 165 -4.0
899 165 -4.0
398 166 4.0
560 166 4.0
777 166 -4.0
910 166 -4.0
321 167 4.0
398 167 -4.0
560 167 -4.0
733 167 4.0
564 168 -4.0
825 168 4.0
1094 168 -4.0
451 169 -4.0
873 169 -4.0
1099 169 4.0
171 170 -4.0
1037 170 4.0
1099 170 4.0
344 171 4.0
345 171 4.0
659 171 -4.0
400 172 4.0
702 172 4.0
703 172 -4.0
705 172 -4.0
664 173 -4.0
880 173 -4.0
920 173 4.0
357 174 -4.0
880 174 4.0
881 174 -4.0
1112 174 4.0
413 175 -4.0
666 175 -4.0
930 175 4.0
413 176 -4.0
453 176 4.0
506 176 -4.0
288 177 4.0
486 177 -4.0
602 177 -4.0
760 177 4.0
404 178 4.0
437 178 -4.0
401 179 4.0
588 179 4.0
734 179 -4.0
961 179 -4.0
326 180 4.0
401 180 -4.0
588 180 -4.0
688 180 4.0
215 181 4.0
593 181 -4.0
1029 181 -4.0
215 182 -4.0
464 182 4.0
519 182 -4.0
657 182 4.0
184 183 4.0
464 183 -4.0
465 184 4.0
699 184 -4.0
915 184 -4.0
356 185 -4.0
1102 185 4.0
1104 185 -4.0
629 186 -4.0
836 186 -4.0
977 186 4.0
363 187 -4.0
836 187 4.0
837 187 -4.0
1045 187 4.0
287 188 4.0
416 188 4.0
547 188 -4.0
1046 188 -4.0
358 189 4.0
416 189 -4.0
709 189 -4.0
278 190 4.0
468 190 -4.0
576 190 -4.0
715 190 4.0
409 191 4.0
431 191 -4.0
406 192 4.0
617 192 4.0
689 192 -4.0
1020 192 -4.0
333 193 4.0
406 193 -4.0
617 193 -4.0
649 193 4.0
205 194 -4.0
480 194 4.0
502 194 -4.0
696 194 4.0
196 195 4.0
480 195 -4.0
481 196 4.0
660 196 -4.0
872 196 -4.0
362 197 -4.0
1037 197 4.0
1038 197 -4.0
793 198 -4.0
1039 198 4.0
1109 198 4.0
421 199 4.0
525 199 -4.0
599 199 4.0
984 199 -4.0
454 200 -4.0
550 200 -4.0
672 200 4.0
1123 200 4.0
235 201 4.0
430 201 -4.0
553 201 4.0
578 201 -4.0
414 202 4.0
425 202 -4.0
258 203 -4.0
318 203 4.0
810 203 -4.0
366 204 -4.0
590 204 4.0
1085 204 4.0
1086 204 -4.0
353 205 4.0
743 205 -4.0
966 205 4.0
207 206 4.0
502 206 -4.0
504 207 4.0
625 207 -4.0
829 207 -4.0
368 208 -4.0
974 208 4.0
976 208 -4.0
750 209 -4.0
1042 209 4.0
1105 209 4.0
424 210 4.0
505 210 -4.0
630 210 4.0
927 210 -4.0
230 211 4.0
436 211 -4.0
531 211 4.0
605 211 -4.0
418 212 4.0
422 212 -4.0
270 213 -4.0
310 213 4.0
770 213 -4.0
370 214 -4.0
619 214 4.0
1020 214 4.0
1021 214 -4.0
360 215 4.0
786 215 -4.0
520 216 4.0
597 216 -4.0
659 216 4.0
788 216 -4.0
569 217 -4.0
879 217 4.0
1104 217 -4.0
253 218 4.0
706 218 -4.0
980 218 4.0
428 219 4.0
484 219 -4.0
666 219 4.0
884 219 -4.0
221 220 4.0
222 220 4.0
429 220 -4.0
443 220 -4.0
468 221 -4.0
600 221 4.0
667 221 -4.0
507 222 -4.0
603 222 4.0
282 223 -4.0
301 223 4.0
724 223 -4.0
349 224 -4.0
377 224 -4.0
654 224 4.0
961 224 4.0
226 225 4.0
227 225 4.0
698 225 -4.0
371 226 -4.0
1096 226 4.0
1098 226 -4.0
541 227 4.0
567 227 -4.0
744 227 -4.0
434 228 4.0
466 228 -4.0
709 228 4.0
840 228 -4.0
454 229 4.0
486 229 -4.0
529 229 -4.0
456 230 -4.0
449 231 4.0
728 231 4.0
1013 231 -4.0
594 232 4.0
595 232 -4.0
596 232 -4.0
1031 232 4.0
378 233 -4.0
744 233 4.0
1031 233 4.0
1033 233 -4.0
239 234 -4.0
441 234 4.0
452 234 -4.0
753 234 4.0
471 235 -4.0
348 236 4.0
684 236 -4.0
772 236 -4.0
957 236 4.0
565 237 4.0
566 237 -4.0
968 237 4.0
328 238 -4.0
788 238 4.0
968 238 4.0
969 238 -4.0
363 239 4.0
795 239 4.0
796 239 -4.0
341 240 4.0
645 240 -4.0
726 240 -4.0
1012 240 4.0
516 241 4.0
687 241 -4.0
262 242 -4.0
360 242 4.0
539 242 4.0
784 242 -4.0
539 243 4.0
540 243 -4.0
913 243 4.0
322 244 4.0
572 244 -4.0
708 244 4.0
1042 244 -4.0
246 245 -4.0
247 245 4.0
455 245 -4.0
508 245 4.0
309 246 4.0
529 246 4.0
577 246 -4.0
469 247 -4.0
511 247 4.0
532 247 -4.0
332 248 4.0
614 248 -4.0
684 248 -4.0
1077 248 4.0
250 249 4.0
439 249 4.0
461 249 -4.0
537 249 -4.0
648 250 -4.0
1084 250 4.0
538 251 4.0
740 251 -4.0
781 251 4.0
517 252 4.0
518 252 -4.0
869 252 4.0
748 253 4.0
833 253 -4.0
878 253 -4.0
545 254 -4.0
665 254 4.0
707 254 4.0
980 254 -4.0
317 255 4.0
469 255 -4.0
551 255 4.0
604 255 -4.0
340 256 4.0
459 256 -4.0
258 257 4.0
583 257 -4.0
857 257 4.0
903 257 -4.0
681 258 4.0
949 258 -4.0
325 259 4.0
586 259 -4.0
645 259 -4.0
559 260 4.0
616 260 -4.0
909 260 -4.0
1019 260 4.0
262 261 -4.0
737 261 4.0
782 262 4.0
964 262 4.0
500 263 4.0
501 263 -4.0
826 263 4.0
351 264 -4.0
826 264 4.0
827 264 -4.0
915 264 4.0
522 265 -4.0
751 265 4.0
924 265 -4.0
278 266 4.0
489 266 4.0
509 266 -4.0
1123 266 -4.0
323 267 4.0
489 267 -4.0
635 267 -4.0
474 268 -4.0
1063 268 4.0
270 269 4.0
612 269 -4.0
811 269 4.0
954 269 -4.0
723 270 4.0
900 270 -4.0
320 271 4.0
558 271 -4.0
614 271 -4.0
273 272 -4.0
692 272 4.0
738 273 4.0
823 273 -4.0
1026 273 4.0
478 274 4.0
479 274 -4.0
742 274 -4.0
785 274 4.0
354 275 -4.0
785 275 4.0
786 275 -4.0
970 275 4.0
356 276 -4.0
626 276 4.0
1099 276 4.0
1100 276 -4.0
544 277 -4.0
794 277 4.0
881 277 -4.0
1056 278 -4.0
1058 278 -4.0
331 279 4.0
509 279 -4.0
603 279 4.0
675 279 -4.0
494 280 -4.0
1000 280 4.0
282 281 4.0
643 281 -4.0
771 281 4.0
1009 281 -4.0
768 282 4.0
853 282 -4.0
291 283 -4.0
312 283 4.0
475 283 4.0
586 283 -4.0
285 284 -4.0
653 284 4.0
963 284 -4.0
693 285 4.0
868 285 -4.0
1091 285 4.0
362 286 -4.0
1034 286 4.0
1035 286 -4.0
571 287 4.0
572 287 -4.0
928 287 -4.0
488 288 4.0
991 288 -4.0
993 288 -4.0
339 289 4.0
530 289 -4.0
634 289 4.0
717 289 -4.0
514 290 -4.0
946 290 4.0
292 291 4.0
771 291 -4.0
1075 291 4.0
725 292 -4.0
812 292 -4.0
1070 292 4.0
333 293 4.0
620 293 -4.0
867 293 -4.0
1023 293 4.0
295 294 4.0
654 294 4.0
912 294 -4.0
1023 294 -4.0
501 295 4.0
592 295 -4.0
595 295 -4.0
368 296 -4.0
971 296 4.0
972 296 -4.0
544 297 4.0
545 297 -4.0
985 297 -4.0
1114 297 4.0
988 298 4.0
1114 298 4.0
1115 298 -4.0
1118 298 -4.0
508 299 4.0
936 299 -4.0
938 299 -4.0
535 300 -4.0
896 300 4.0
558 301 4.0
683 301 -4.0
772 301 -4.0
303 302 4.0
646 302 4.0
687 302 -4.0
776 302 -4.0
1075 303 4.0
1076 303 -4.0
1079 303 -4.0
326 304 4.0
591 304 -4.0
821 304 -4.0
1088 304 4.0
306 305 4.0
619 305 4.0
965 305 -4.0
1088 305 -4.0
518 306 4.0
566 306 -4.0
1089 306 -4.0
373 307 -4.0
916 307 -4.0
1047 308 4.0
1048 308 -4.0
1050 308 4.0
1051 308 -4.0
891 309 -4.0
892 309 -4.0
586 310 4.0
644 310 -4.0
726 310 -4.0
312 311 4.0
615 311 4.0
732 311 -4.0
816 311 -4.0
1011 312 -4.0
1014 312 -4.0
321 313 4.0
563 313 -4.0
779 313 -4.0
315 314 4.0
542 314 -4.0
628 314 -4.0
701 315 -4.0
834 315 -4.0
920 315 4.0
985 316 4.0
986 316 -4.0
989 316 -4.0
1117 316 4.0
845 317 -4.0
846 317 -4.0
613 318 -4.0
614 318 4.0
684 318 -4.0
320 319 4.0
776 319 -4.0
862 319 -4.0
956 320 -4.0
1078 320 -4.0
735 321 -4.0
737 321 -4.0
346 322 4.0
879 322 -4.0
981 322 -4.0
801 323 -4.0
803 323 -4.0
583 324 4.0
640 324 4.0
641 324 -4.0
643 324 -4.0
647 325 4.0
905 325 -4.0
1013 325 -4.0
690 326 -4.0
692 326 -4.0
328 327 4.0
596 327 -4.0
1033 327 -4.0
972 328 -4.0
337 329 4.0
835 329 -4.0
1043 329 -4.0
1110 329 4.0
599 330 4.0
1110 330 4.0
1111 330 -4.0
1113 330 -4.0
758 331 4.0
759 331 -4.0
761 331 -4.0
686 332 4.0
859 332 -4.0
958 332 -4.0
651 333 -4.0
653 333 -4.0
623 334 4.0
1091 334 4.0
1092 334 -4.0
1095 334 -4.0
336 335 4.0
624 335 -4.0
1098 335 -4.0
914 336 -4.0
916 336 -4.0
792 337 4.0
794 337 -4.0
630 338 4.0
1043 338 4.0
1044 338 -4.0
1046 338 -4.0
713 339 4.0
714 339 -4.0
716 339 -4.0
641 340 4.0
1062 340 -4.0
1065 340 -4.0
731 341 4.0
813 341 -4.0
906 341 -4.0
376 342 4.0
653 342 -4.0
909 342 4.0
962 342 -4.0
657 343 4.0
1026 343 4.0
1027 343 -4.0
1030 343 -4.0
870 344 4.0
871 344 -4.0
874 344 -4.0
661 345 4.0
698 345 -4.0
700 345 -4.0
749 346 4.0
751 346 -4.0
666 347 4.0
981 347 4.0
982 347 -4.0
984 347 -4.0
773 348 -4.0
775 348 4.0
861 348 -4.0
379 349 4.0
692 349 -4.0
696 350 4.0
964 350 4.0
965 350 -4.0
967 350 -4.0
698 351 4.0
828 351 4.0
830 351 -4.0
709 352 4.0
925 352 4.0
927 352 -4.0
911 353 4.0
912 353 -4.0
1029 353 -4.0
745 354 4.0
787 354 4.0
789 354 -4.0
356 355 4.0
748 355 -4.0
876 355 -4.0
1101 356 4.0
753 357 4.0
882 357 4.0
884 357 -4.0
359 358 4.0
754 358 -4.0
887 358 -4.0
756 359 4.0
843 359 -4.0
987 359 -4.0
868 360 -4.0
1094 360 -4.0
362 361 4.0
791 361 -4.0
919 361 -4.0
1036 362 4.0
838 363 4.0
840 363 -4.0
365 364 4.0
805 364 -4.0
381 365 -4.0
1126 365 4.0
1127 365 -4.0
1087 366 4.0
1090 366 -4.0
368 367 4.0
831 367 4.0
833 367 -4.0
976 367 -4.0
973 368 4.0
848 369 -4.0
1128 369 4.0
1022 370 4.0
1025 370 -4.0
871 371 4.0
1094 371 4.0
1095 371 -4.0
373 372 4.0
875 372 4.0
876 372 -4.0
1038 372 -4.0
917 373 4.0
1103 373 -4.0
375 374 4.0
894 374 -4.0
995 375 4.0
996 375 -4.0
998 375 -4.0
1082 376 4.0
1083 376 -4.0
1086 376 -4.0
962 377 4.0
963 377 -4.0
914 378 4.0
1029 378 4.0
1030 378 -4.0
1017 379 4.0
1018 379 -4.0
1021 379 -4.0
991 380 4.0
1119 380 4.0
1120 380 -4.0
1122 380 -4.0
1128 381 4.0
497 382 -4.0
940 383 -4.0
992 383 4.0
1057 384 4.0
427 385 -4.0
727 385 -4.0
953 385 -4.0
1072 385 4.0
432 386 -4.0
902 386 -4.0
427 387 -4.0
438 387 -4.0
856 387 -4.0
432 388 -4.0
448 388 -4.0
411 389 -4.0
538 389 -4.0
438 390 -4.0
460 390 -4.0
448 392 -4.0
975 393 -4.0
460 394 -4.0
496 394 -4.0
542 395 -4.0
652 396 -4.0
568 397 -4.0
747 397 -4.0
831 397 4.0
691 398 -4.0
598 399 -4.0
702 399 -4.0
875 399 4.0
880 400 -4.0
1040 400 -4.0
538 401 -4.0
736 401 -4.0
627 402 -4.0
918 402 4.0
749 403 4.0
836 403 -4.0
1106 403 -4.0
1108 403 -4.0
405 404 -4.0
446 404 -4.0
409 405 -4.0
852 405 -4.0
1003 405 4.0
561 406 -4.0
780 406 -4.0
661 407 -4.0
747 407 -4.0
974 407 4.0
548 408 -4.0
1047 408 4.0
410 409 -4.0
458 409 -4.0
414 410 -4.0
807 410 -4.0
1066 410 4.0
462 411 -4.0
650 411 4.0
1085 411 -4.0
700 412 -4.0
702 412 -4.0
1037 412 4.0
574 413 -4.0
1114 413 4.0
415 414 -4.0
473 414 -4.0
418 415 -4.0
767 415 -4.0
526 416 -4.0
600 416 -4.0
444 417 -4.0
943 417 -4.0
419 418 -4.0
493 418 -4.0
422 419 -4.0
722 419 -4.0
769 420 -4.0
1072 420 4.0
548 421 -4.0
631 421 -4.0
754 421 -4.0
423 422 -4.0
513 422 -4.0
425 423 -4.0
680 423 -4.0
574 424 -4.0
667 424 -4.0
796 424 -4.0
426 425 -4.0
534 425 -4.0
431 426 -4.0
642 426 -4.0
774 427 4.0
957 427 -4.0
600 428 -4.0
710 428 -4.0
841 428 -4.0
486 429 -4.0
574 429 4.0
710 429 -4.0
491 430 -4.0
556 431 -4.0
1064 431 -4.0
729 432 4.0
1012 432 -4.0
503 433 -4.0
596 433 -4.0
829 433 -4.0
968 433 4.0
631 434 -4.0
755 434 -4.0
885 434 -4.0
454 435 -4.0
507 435 -4.0
548 435 4.0
755 435 -4.0
511 436 -4.0
581 437 -4.0
1001 437 -4.0
1064 437 -4.0
685 438 4.0
1077 438 -4.0
516 439 -4.0
730 439 -4.0
957 439 -4.0
624 440 -4.0
872 440 -4.0
1031 440 4.0
667 441 -4.0
797 441 -4.0
929 441 -4.0
468 442 -4.0
526 442 4.0
528 442 -4.0
797 442 -4.0
487 443 -4.0
528 443 -4.0
634 443 4.0
445 444 -4.0
510 444 4.0
636 444 -4.0
532 445 -4.0
459 446 -4.0
608 447 -4.0
947 447 -4.0
1001 447 -4.0
646 448 4.0
516 449 -4.0
559 449 -4.0
1012 449 -4.0
500 450 -4.0
622 450 4.0
658 451 -4.0
915 451 -4.0
1096 451 4.0
710 452 -4.0
842 452 -4.0
986 452 -4.0
486 453 -4.0
550 453 -4.0
842 453 -4.0
1052 454 -4.0
489 455 -4.0
491 455 4.0
554 455 -4.0
457 456 -4.0
490 456 4.0
676 456 -4.0
554 457 -4.0
474 458 -4.0
897 459 -4.0
947 459 -4.0
615 460 4.0
587 461 -4.0
860 461 4.0
1077 461 -4.0
516 462 -4.0
587 462 -4.0
478 463 -4.0
1093 463 4.0
697 464 -4.0
970 464 -4.0
626 465 -4.0
698 465 -4.0
1102 465 -4.0
755 466 -4.0
886 466 -4.0
1048 466 -4.0
507 467 -4.0
576 467 -4.0
886 467 -4.0
670 468 -4.0
470 469 -4.0
488 469 4.0
471 470 4.0
509 470 -4.0
579 470 -4.0
472 471 -4.0
718 471 -4.0
579 472 -4.0
494 473 -4.0
850 474 -4.0
897 474 -4.0
515 475 -4.0
559 476 -4.0
616 476 -4.0
814 476 4.0
479 477 -4.0
784 477 4.0
1028 477 4.0
1026 478 4.0
1091 479 4.0
743 480 -4.0
1032 480 -4.0
745 481 -4.0
1037 481 -4.0
483 482 -4.0
543 482 -4.0
705 482 -4.0
521 483 -4.0
571 483 -4.0
837 483 4.0
797 484 -4.0
931 484 -4.0
1115 484 -4.0
528 485 -4.0
602 485 -4.0
931 485 -4.0
488 487 4.0
530 488 -4.0
490 489 -4.0
530 490 -4.0
606 490 -4.0
492 491 -4.0
763 491 -4.0
606 492 -4.0
514 493 -4.0
806 494 -4.0
850 494 -4.0
611 495 -4.0
808 495 4.0
1070 495 -4.0
497 496 -4.0
536 497 -4.0
1075 497 4.0
587 498 -4.0
648 498 -4.0
774 498 4.0
501 499 -4.0
741 499 4.0
966 499 4.0
964 500 4.0
786 502 -4.0
1097 502 -4.0
971 503 4.0
789 504 -4.0
974 504 -4.0
842 505 -4.0
988 505 -4.0
550 506 -4.0
633 506 -4.0
988 506 -4.0
552 508 -4.0
510 509 -4.0
552 510 -4.0
637 510 -4.0
512 511 -4.0
1126 511 -4.0
637 512 -4.0
535 513 -4.0
766 514 -4.0
806 514 -4.0
616 515 -4.0
687 515 -4.0
729 515 4.0
911 517 4.0
659 519 -4.0
827 519 -4.0
830 520 -4.0
918 520 -4.0
523 521 -4.0
524 521 -4.0
524 522 -4.0
573 522 -4.0
572 523 -4.0
1047 523 4.0
1047 524 -4.0
886 525 -4.0
1050 525 -4.0
527 526 -4.0
576 527 -4.0
669 527 -4.0
1050 527 -4.0
937 529 -4.0
1122 529 -4.0
531 530 -4.0
577 531 -4.0
677 531 -4.0
533 532 -4.0
1060 532 -4.0
677 533 -4.0
557 534 -4.0
721 535 -4.0
766 535 -4.0
648 536 -4.0
685 536 4.0
732 536 -4.0
732 537 -4.0
822 540 -4.0
542 541 -4.0
874 541 -4.0
875 541 -4.0
917 542 4.0
545 543 -4.0
664 543 -4.0
883 543 4.0
546 545 -4.0
985 546 4.0
1112 546 4.0
931 547 -4.0
1117 547 -4.0
549 548 -4.0
602 549 -4.0
712 549 -4.0
1117 549 -4.0
670 551 -4.0
992 551 -4.0
1056 551 -4.0
553 552 -4.0
674 552 -4.0
604 553 -4.0
719 553 -4.0
555 554 -4.0
995 554 -4.0
719 555 -4.0
582 556 -4.0
679 557 -4.0
721 557 -4.0
849 557 -4.0
811 558 -4.0
1075 558 -4.0
560 559 -4.0
776 560 -4.0
563 561 -4.0
782 561 4.0
740 562 -4.0
780 562 -4.0
1089 562 4.0
1089 563 -4.0
566 564 -4.0
621 564 4.0
823 565 4.0
568 567 -4.0
831 567 -4.0
916 567 -4.0
662 568 -4.0
973 568 4.0
662 569 -4.0
704 569 -4.0
572 570 -4.0
629 570 -4.0
926 570 4.0
928 573 4.0
1045 573 4.0
575 574 -4.0
633 575 -4.0
757 575 -4.0
1118 575 4.0
578 577 -4.0
716 577 -4.0
635 578 -4.0
764 578 -4.0
580 579 -4.0
941 579 -4.0
764 580 -4.0
609 581 -4.0
640 582 -4.0
679 582 -4.0
895 582 -4.0
584 583 -4.0
1004 583 -4.0
585 584 -4.0
855 584 -4.0
645 585 -4.0
857 586 -4.0
588 587 -4.0
816 588 -4.0
591 589 -4.0
738 589 4.0
1085 589 -4.0
592 590 -4.0
736 590 4.0
1024 590 4.0
592 591 -4.0
593 592 4.0
595 593 -4.0
868 594 4.0
598 597 -4.0
972 597 -4.0
701 598 -4.0
1036 598 4.0
601 600 -4.0
669 601 -4.0
800 601 -4.0
1051 601 4.0
758 602 -4.0
936 603 -4.0
605 604 -4.0
761 604 -4.0
675 605 -4.0
805 605 -4.0
607 606 -4.0
996 606 -4.0
805 607 -4.0
639 608 -4.0
610 609 -4.0
640 609 -4.0
945 609 -4.0
611 610 -4.0
639 610 -4.0
680 610 -4.0
612 611 -4.0
851 611 -4.0
613 612 -4.0
1067 612 -4.0
856 613 4.0
901 613 -4.0
903 614 -4.0
686 615 -4.0
1076 615 4.0
617 616 -4.0
862 617 -4.0
620 618 -4.0
693 618 4.0
1020 618 -4.0
621 619 -4.0
691 619 4.0
621 620 -4.0
1091 621 -4.0
623 622 4.0
912 622 4.0
624 623 -4.0
1096 623 4.0
627 625 -4.0
1035 625 -4.0
746 626 4.0
746 627 -4.0
1101 627 4.0
746 628 -4.0
792 628 -4.0
977 628 4.0
878 629 -4.0
1043 629 4.0
632 631 -4.0
1052 631 -4.0
712 632 -4.0
844 632 -4.0
989 632 4.0
713 633 -4.0
891 634 -4.0
1057 634 4.0
636 635 -4.0
803 635 -4.0
717 636 -4.0
848 636 -4.0
638 637 -4.0
1061 637 -4.0
848 638 -4.0
641 639 -4.0
999 639 -4.0
722 640 -4.0
642 641 -4.0
643 642 4.0
769 642 -4.0
644 643 -4.0
902 644 4.0
951 644 -4.0
954 645 -4.0
731 646 -4.0
1011 646 4.0
816 647 -4.0
907 647 -4.0
650 648 -4.0
651 649 -4.0
1081 649 4.0
651 650 -4.0
907 650 -4.0
1085 651 -4.0
654 652 4.0
655 652 -4.0
961 652 -4.0
655 653 -4.0
656 654 -4.0
656 655 -4.0
1026 656 -4.0
658 657 -4.0
1093 657 4.0
870 658 -4.0
661 660 -4.0
1100 660 -4.0
790 661 -4.0
663 662 -4.0
749 663 -4.0
790 663 -4.0
1039 663 4.0
922 664 -4.0
981 664 4.0
666 665 4.0
668 667 -4.0
757 668 -4.0
889 668 -4.0
932 668 4.0
671 669 -4.0
673 670 -4.0
1055 670 -4.0
673 671 -4.0
889 671 -4.0
674 672 4.0
845 672 -4.0
992 672 4.0
674 673 -4.0
762 674 -4.0
676 675 -4.0
846 675 -4.0
762 676 -4.0
894 676 -4.0
678 677 -4.0
1127 677 -4.0
894 678 -4.0
681 679 4.0
767 679 -4.0
682 680 4.0
809 680 -4.0
682 681 -4.0
1065 681 4.0
683 682 -4.0
1070 682 -4.0
953 683 4.0
1006 683 -4.0
1009 684 -4.0
775 685 -4.0
956 685 4.0
862 686 -4.0
959 686 -4.0
689 687 -4.0
690 688 -4.0
1016 688 4.0
690 689 -4.0
959 689 -4.0
1020 690 -4.0
694 691 -4.0
910 691 -4.0
694 692 -4.0
695 693 -4.0
962 693 4.0
695 694 -4.0
964 695 -4.0
697 696 -4.0
1028 696 4.0
828 697 -4.0
700 699 -4.0
832 700 -4.0
703 701 -4.0
832 703 -4.0
1105 703 4.0
705 704 -4.0
791 704 4.0
922 704 -4.0
707 705 -4.0
925 706 4.0
923 707 -4.0
925 707 -4.0
709 708 4.0
711 710 -4.0
800 711 -4.0
887 711 4.0
934 711 -4.0
714 712 -4.0
844 713 -4.0
802 714 -4.0
934 714 -4.0
716 715 4.0
801 715 -4.0
937 715 4.0
804 716 -4.0
718 717 -4.0
892 717 -4.0
804 718 -4.0
942 718 -4.0
720 719 -4.0
942 720 -4.0
723 721 4.0
807 721 -4.0
724 722 4.0
854 722 -4.0
724 723 -4.0
1002 723 4.0
725 724 -4.0
1008 725 4.0
1069 725 -4.0
728 726 -4.0
1073 726 -4.0
730 727 -4.0
860 727 4.0
730 728 -4.0
812 728 -4.0
815 729 -4.0
905 729 4.0
815 730 -4.0
907 731 -4.0
1015 731 -4.0
734 732 -4.0
735 733 -4.0
960 733 4.0
735 734 -4.0
1015 734 -4.0
961 735 -4.0
739 736 -4.0
866 736 -4.0
739 737 -4.0
1021 737 -4.0
741 738 -4.0
1022 738 4.0
741 739 -4.0
822 740 -4.0
911 740 4.0
911 741 -4.0
787 742 4.0
787 743 -4.0
745 744 -4.0
1101 745 -4.0
748 746 -4.0
882 750 4.0
882 751 -4.0
979 751 -4.0
753 752 4.0
1110 752 4.0
754 753 -4.0
756 755 -4.0
844 756 -4.0
990 756 -4.0
759 757 -4.0
800 758 -4.0
760 759 -4.0
990 759 -4.0
761 760 4.0
847 761 -4.0
763 762 -4.0
938 762 -4.0
847 763 -4.0
997 763 -4.0
765 764 -4.0
997 765 -4.0
768 766 4.0
852 766 -4.0
770 767 4.0
770 768 -4.0
948 768 4.0
858 771 -4.0
773 772 -4.0
858 773 -4.0
860 773 4.0
859 774 4.0
861 774 -4.0
959 775 -4.0
1080 775 -4.0
777 776 -4.0
778 777 -4.0
1080 777 -4.0
779 778 -4.0
910 778 -4.0
781 779 -4.0
783 780 -4.0
820 780 -4.0
783 781 -4.0
1086 781 -4.0
784 782 -4.0
1087 782 4.0
784 783 -4.0
1032 787 4.0
789 788 -4.0
1036 789 -4.0
791 790 -4.0
838 793 4.0
838 794 -4.0
1041 794 -4.0
1043 795 4.0
930 796 -4.0
799 797 -4.0
799 798 -4.0
930 798 -4.0
1052 798 -4.0
889 799 -4.0
1054 799 -4.0
801 800 -4.0
1054 801 -4.0
803 802 4.0
893 803 -4.0
993 804 -4.0
1126 804 -4.0
808 806 4.0
899 806 -4.0
810 807 4.0
950 807 -4.0
810 808 -4.0
898 808 4.0
904 811 -4.0
813 812 -4.0
814 813 4.0
904 813 -4.0
906 814 -4.0
817 815 -4.0
1015 815 -4.0
818 816 -4.0
818 817 -4.0
906 817 -4.0
819 818 -4.0
821 819 -4.0
866 819 -4.0
865 820 -4.0
1087 820 4.0
1087 821 -4.0
824 822 -4.0
1024 822 -4.0
824 823 -4.0
825 824 -4.0
827 825 -4.0
1096 825 -4.0
1095 826 -4.0
1097 828 4.0
830 829 -4.0
914 829 4.0
973 830 -4.0
833 832 -4.0
835 834 4.0
837 835 -4.0
1107 837 -4.0
983 838 4.0
840 839 4.0
981 839 4.0
841 840 -4.0
987 841 -4.0
843 842 -4.0
934 843 -4.0
1121 843 -4.0
845 844 -4.0
1121 845 -4.0
939 846 -4.0
1058 847 -4.0
1060 847 -4.0
940 848 4.0
896 849 -4.0
853 850 4.0
853 851 -4.0
896 851 -4.0
855 852 4.0
1005 852 -4.0
855 853 -4.0
955 856 4.0
955 857 -4.0
859 858 -4.0
955 859 -4.0
958 860 -4.0
863 861 -4.0
1080 861 -4.0
864 862 -4.0
864 863 -4.0
958 863 -4.0
865 864 -4.0
867 865 -4.0
1022 866 4.0
1022 867 -4.0
871 869 4.0
1030 869 -4.0
872 871 4.0
874 872 -4.0
917 873 4.0
1098 873 4.0
917 874 -4.0
877 876 -4.0
1105 876 -4.0
879 877 -4.0
881 878 4.0
881 879 -4.0
926 882 4.0
884 883 4.0
925 883 4.0
885 884 -4.0
1049 885 -4.0
888 886 -4.0
888 887 -4.0
1049 887 -4.0
890 888 -4.0
990 888 -4.0
891 889 -4.0
891 890 -4.0
1053 890 -4.0
994 892 -4.0
995 893 -4.0
1124 893 -4.0
1126 893 -4.0
946 895 -4.0
898 896 -4.0
900 897 4.0
1003 897 -4.0
900 898 -4.0
946 898 -4.0
901 899 4.0
1068 899 -4.0
901 900 -4.0
1010 902 4.0
1010 903 -4.0
905 904 -4.0
1010 905 -4.0
908 906 -4.0
1082 907 -4.0
1013 908 -4.0
1082 908 -4.0
1083 909 -4.0
962 910 4.0
914 913 4.0
967 913 -4.0
916 915 -4.0
1103 918 4.0
921 919 -4.0
1039 919 -4.0
1103 919 -4.0
923 920 4.0
1038 920 -4.0
923 921 -4.0
924 922 4.0
924 923 -4.0
927 926 4.0
929 927 -4.0
1116 928 4.0
1116 929 -4.0
932 930 -4.0
933 931 -4.0
933 932 -4.0
1116 932 -4.0
935 933 -4.0
1054 933 -4.0
936 934 -4.0
936 935 -4.0
1120 935 -4.0
1059 937 4.0
1059 938 -4.0
941 939 -4.0
1060 939 -4.0
943 940 -4.0
943 941 -4.0
1059 941 -4.0
944 942 -4.0
944 943 -4.0
1000 945 -4.0
948 946 -4.0
949 947 4.0
1066 947 -4.0
949 948 -4.0
1000 948 -4.0
951 949 -4.0
952 950 4.0
952 951 -4.0
954 952 -4.0
1074 953 4.0
1074 954 -4.0
956 955 -4.0
1074 956 -4.0
1078 957 -4.0
960 958 -4.0
1017 959 -4.0
1017 960 -4.0
1078 960 -4.0
965 963 -4.0
1093 965 4.0
967 966 -4.0
1092 966 4.0
969 967 -4.0
1029 968 -4.0
972 970 -4.0
1099 970 -4.0
1097 971 -4.0
978 975 4.0
977 976 -4.0
978 976 -4.0
979 977 4.0
979 978 -4.0
980 979 -4.0
982 980 -4.0
1112 982 -4.0
984 983 4.0
1111 983 -4.0
986 984 -4.0
989 987 -4.0
1119 988 -4.0
1119 989 -4.0
991 990 -4.0
1125 992 4.0
1125 993 -4.0
995 994 -4.0
996 994 -4.0
1125 996 -4.0
998 997 -4.0
1063 999 -4.0
1002 1000 -4.0
1004 1001 4.0
1004 1002 -4.0
1063 1002 -4.0
1006 1003 4.0
1006 1004 -4.0
1007 1005 4.0
1007 1006 -4.0
1009 1007 -4.0
1011 1010 -4.0
1014 1012 -4.0
1016 1013 -4.0
1016 1014 -4.0
1018 1015 -4.0
1018 1016 -4.0
1019 1017 -4.0
1021 1019 4.0
1025 1023 -4.0
1027 1024 -4.0
1027 1025 -4.0
1028 1027 4.0
1030 1028 -4.0
1094 1031 -4.0
1034 1032 -4.0
1035 1032 -4.0
1035 1033 -4.0
1040 1038 -4.0
1041 1039 4.0
1041 1040 -4.0
1042 1041 -4.0
1044 1042 -4.0
1045 1044 -4.0
1046 1045 4.0
1048 1046 -4.0
1051 1049 -4.0
1053 1050 -4.0
1053 1051 -4.0
1055 1052 -4.0
1055 1053 -4.0
1056 1054 -4.0
1056 1055 -4.0
1061 1059 -4.0
1128 1060 4.0
1128 1061 -4.0
1065 1063 -4.0
1067 1064 4.0
1067 1065 -4.0
1068 1066 4.0
1069 1066 4.0
1069 1067 -4.0
1071 1068 4.0
1071 1069 -4.0
1073 1070 -4.0
1073 1071 -4.0
1076 1074 -4.0
1079 1077 -4.0
1081 1078 -4.0
1081 1079 -4.0
1083 1080 -4.0
1083 1081 -4.0
1084 1082 -4.0
1086 1084 4.0
1090 1088 -4.0
1092 1089 -4.0
1092 1090 -4.0
1095 1093 -4.0
1100 1097 -4.0
1100 1098 -4.0
1104 1103 -4.0
1106 1104 -4.0
1107 1105 4.0
1107 1106 -4.0
1109 1107 -4.0
1111 1108 4.0
1110 1109 -4.0
1111 1109 -4.0
1113 1112 4.0
1114 1113 -4.0
1115 1113 -4.0
1118 1116 -4.0
1120 1117 -4.0
1120 1118 -4.0
1121 1119 -4.0
1122 1121 -4.0
1123 1122 -4.0
1124 1123 -4.0
1127 1125 -4.0
0.0 # default value for linear coefficients in objective
747 # number of non-default linear coefficients in objective
382 2.0
383 2.0
384 2.0
385 2.0
386 2.0
387 2.0
388 2.0
389 2.0
390 4.0
391 2.0
392 4.0
393 2.0
394 4.0
395 2.0
396 2.0
397 2.0
398 2.0
399 2.0
400 2.0
401 2.0
402 2.0
403 2.0
404 2.0
405 2.0
406 2.0
407 2.0
408 2.0
409 2.0
410 2.0
411 2.0
412 2.0
413 2.0
414 2.0
415 2.0
416 2.0
417 2.0
418 2.0
419 2.0
420 2.0
421 2.0
422 4.0
423 2.0
424 2.0
425 4.0
426 4.0
427 2.0
428 2.0
429 2.0
430 2.0
431 4.0
432 2.0
433 2.0
434 2.0
435 2.0
436 2.0
437 4.0
438 2.0
439 2.0
440 2.0
441 2.0
442 2.0
443 2.0
444 2.0
445 2.0
446 2.0
447 4.0
448 2.0
449 2.0
450 -2.0
451 2.0
452 4.0
453 2.0
454 2.0
455 2.0
456 2.0
457 2.0
458 2.0
459 4.0
460 2.0
461 2.0
462 4.0
463 -2.0
464 2.0
465 2.0
466 4.0
467 2.0
468 4.0
469 2.0
470 2.0
471 2.0
472 2.0
473 2.0
474 4.0
475 2.0
476 2.0
477 -2.0
478 -2.0
479 2.0
480 2.0
481 2.0
482 2.0
483 2.0
484 4.0
485 4.0
486 4.0
487 2.0
488 -2.0
489 2.0
490 2.0
491 2.0
492 2.0
493 2.0
494 4.0
495 2.0
496 2.0
497 2.0
498 2.0
499 -2.0
500 -2.0
501 2.0
502 4.0
503 2.0
504 2.0
505 2.0
506 4.0
507 4.0
508 -2.0
509 4.0
510 2.0
511 2.0
512 2.0
513 2.0
514 4.0
515 2.0
516 2.0
517 -2.0
518 2.0
519 4.0
520 2.0
521 2.0
522 4.0
523 2.0
524 4.0
525 2.0
526 2.0
527 4.0
528 4.0
529 2.0
530 4.0
531 2.0
532 4.0
533 2.0
534 2.0
535 4.0
536 2.0
537 2.0
538 2.0
539 -2.0
540 4.0
541 2.0
542 2.0
543 2.0
544 2.0
545 4.0
546 -2.0
547 4.0
548 2.0
549 4.0
550 4.0
551 2.0
552 4.0
553 2.0
554 4.0
555 2.0
556 2.0
557 4.0
558 2.0
559 2.0
560 2.0
561 2.0
562 2.0
563 2.0
564 2.0
565 -4.0
566 4.0
567 4.0
568 2.0
569 4.0
570 2.0
571 2.0
572 4.0
573 -2.0
574 2.0
575 2.0
576 4.0
577 4.0
578 4.0
579 4.0
580 2.0
581 2.0
582 4.0
583 2.0
584 2.0
585 4.0
586 2.0
587 4.0
588 2.0
589 2.0
590 -2.0
591 2.0
592 2.0
593 2.0
594 -4.0
595 4.0
596 2.0
597 4.0
598 2.0
599 -2.0
600 2.0
601 2.0
602 4.0
603 -2.0
604 4.0
605 4.0
606 4.0
607 2.0
608 2.0
609 4.0
610 4.0
611 4.0
612 4.0
613 2.0
614 2.0
615 -2.0
616 4.0
617 2.0
618 2.0
619 -2.0
620 2.0
621 2.0
622 -4.0
623 -2.0
624 4.0
625 4.0
626 -2.0
627 2.0
628 2.0
629 2.0
630 -2.0
631 4.0
632 2.0
633 4.0
634 -2.0
635 4.0
636 4.0
637 4.0
638 2.0
639 4.0
640 2.0
641 2.0
642 2.0
643 2.0
644 2.0
645 4.0
646 -2.0
647 2.0
648 4.0
649 -2.0
650 2.0
651 4.0
652 2.0
653 2.0
654 -2.0
655 4.0
656 2.0
657 -2.0
658 4.0
659 2.0
660 4.0
661 2.0
662 2.0
663 2.0
664 2.0
665 -2.0
666 -2.0
667 4.0
668 2.0
669 4.0
670 4.0
671 4.0
672 -2.0
673 4.0
674 2.0
675 4.0
676 4.0
677 4.0
678 2.0
679 2.0
680 2.0
681 -2.0
682 2.0
683 2.0
684 4.0
685 -2.0
686 2.0
687 4.0
688 -2.0
689 4.0
690 4.0
691 2.0
692 2.0
693 -2.0
694 4.0
695 2.0
696 -2.0
697 4.0
698 2.0
699 2.0
700 4.0
701 2.0
702 2.0
703 2.0
704 2.0
705 4.0
706 2.0
707 2.0
708 -2.0
709 -2.0
710 4.0
711 2.0
712 4.0
713 2.0
714 4.0
715 -2.0
716 2.0
717 4.0
718 4.0
719 2.0
720 2.0
721 2.0
722 2.0
723 -2.0
724 2.0
725 2.0
726 4.0
727 2.0
728 2.0
729 -2.0
730 4.0
731 2.0
732 4.0
733 -2.0
734 4.0
735 4.0
736 2.0
737 2.0
738 -2.0
739 4.0
740 2.0
741 2.0
742 -2.0
743 4.0
744 2.0
745 2.0
746 2.0
747 2.0
748 2.0
749 -2.0
750 2.0
751 2.0
752 -4.0
753 -2.0
754 2.0
755 4.0
756 2.0
757 4.0
758 2.0
759 4.0
760 -2.0
761 2.0
762 4.0
763 4.0
764 2.0
765 2.0
766 2.0
767 2.0
768 -2.0
769 2.0
770 2.0
771 2.0
772 2.0
773 2.0
774 -2.0
775 2.0
776 4.0
777 4.0
778 4.0
779 2.0
780 4.0
781 2.0
782 -2.0
783 4.0
784 2.0
785 -4.0
786 4.0
787 -2.0
788 2.0
789 4.0
790 2.0
791 2.0
792 -2.0
793 2.0
794 2.0
795 -4.0
796 2.0
797 4.0
798 4.0
799 4.0
800 4.0
801 4.0
802 -2.0
803 2.0
804 4.0
805 2.0
806 2.0
807 2.0
808 -2.0
809 2.0
810 2.0
811 2.0
812 2.0
813 2.0
814 -2.0
815 4.0
816 4.0
817 2.0
818 4.0
819 4.0
820 2.0
821 2.0
822 4.0
823 2.0
824 4.0
825 2.0
826 -2.0
827 4.0
828 -2.0
829 2.0
830 4.0
831 -2.0
832 2.0
833 4.0
834 -2.0
835 2.0
836 2.0
837 2.0
838 -2.0
839 -4.0
840 2.0
841 4.0
842 4.0
843 4.0
844 4.0
845 4.0
846 2.0
847 4.0
848 2.0
849 2.0
850 2.0
851 4.0
852 2.0
853 2.0
854 2.0
855 2.0
856 -2.0
857 2.0
858 2.0
859 2.0
860 -2.0
861 4.0
862 4.0
863 2.0
864 4.0
865 4.0
866 2.0
867 2.0
868 2.0
869 -2.0
870 -2.0
871 -2.0
872 2.0
873 -2.0
874 4.0
875 -2.0
876 4.0
877 2.0
878 2.0
879 2.0
880 2.0
881 2.0
882 -2.0
883 -4.0
884 2.0
885 4.0
886 4.0
887 2.0
888 4.0
889 4.0
890 2.0
891 4.0
892 2.0
893 4.0
894 4.0
895 2.0
896 2.0
897 2.0
898 2.0
899 2.0
900 2.0
901 2.0
902 -2.0
903 4.0
904 2.0
905 2.0
906 4.0
907 4.0
908 2.0
909 2.0
910 2.0
911 -2.0
912 2.0
913 -2.0
914 -2.0
915 2.0
916 4.0
917 -2.0
918 -2.0
919 4.0
920 -2.0
921 2.0
922 2.0
923 2.0
924 2.0
925 -2.0
926 -4.0
927 2.0
928 -2.0
929 4.0
930 2.0
931 4.0
932 2.0
933 4.0
934 4.0
935 4.0
936 4.0
937 -2.0
938 2.0
939 2.0
940 2.0
941 4.0
942 4.0
943 4.0
944 2.0
945 2.0
946 2.0
947 2.0
948 2.0
949 2.0
950 -2.0
951 2.0
952 2.0
953 -2.0
954 4.0
955 2.0
956 2.0
957 2.0
958 4.0
959 4.0
960 2.0
961 2.0
962 -2.0
963 2.0
964 -2.0
965 2.0
966 -2.0
967 4.0
968 -2.0
969 4.0
970 2.0
971 -2.0
972 4.0
973 -2.0
974 -2.0
975 -2.0
976 4.0
977 -2.0
978 2.0
979 2.0
980 2.0
981 -2.0
982 2.0
983 -2.0
984 2.0
985 -2.0
986 4.0
987 2.0
988 2.0
989 2.0
990 4.0
991 2.0
992 -2.0
993 4.0
994 2.0
995 2.0
996 4.0
997 4.0
998 2.0
999 2.0
1000 2.0
1001 2.0
1002 2.0
1003 -2.0
1004 2.0
1005 -2.0
1006 2.0
1007 2.0
1008 -4.0
1009 4.0
1010 2.0
1011 2.0
1012 2.0
1013 4.0
1014 2.0
1015 4.0
1016 2.0
1017 2.0
1018 4.0
1019 -2.0
1020 2.0
1021 2.0
1022 -2.0
1023 2.0
1024 2.0
1025 4.0
1026 -2.0
1027 2.0
1028 -2.0
1029 2.0
1030 4.0
1031 -2.0
1032 2.0
1033 2.0
1034 -2.0
1035 4.0
1036 -2.0
1037 -2.0
1038 4.0
1039 -2.0
1040 2.0
1041 2.0
1042 2.0
1043 -2.0
1044 2.0
1045 -2.0
1046 2.0
1047 -2.0
1048 4.0
1049 2.0
1050 2.0
1051 2.0
1052 4.0
1053 4.0
1054 4.0
1055 4.0
1056 4.0
1057 -2.0
1058 4.0
1059 2.0
1060 2.0
1061 4.0
1062 2.0
1063 2.0
1064 2.0
1065 2.0
1066 -2.0
1067 2.0
1068 -2.0
1069 2.0
1070 2.0
1071 2.0
1072 -4.0
1073 4.0
1074 2.0
1075 -2.0
1076 2.0
1077 2.0
1078 4.0
1079 2.0
1080 4.0
1081 2.0
1082 2.0
1083 4.0
1084 -2.0
1085 2.0
1086 2.0
1087 -2.0
1088 2.0
1089 2.0
1090 4.0
1091 -2.0
1092 2.0
1093 -2.0
1094 2.0
1095 4.0
1096 -2.0
1097 2.0
1098 2.0
1099 -2.0
1100 4.0
1101 -2.0
1102 2.0
1103 2.0
1104 4.0
1105 -2.0
1106 4.0
1107 2.0
1108 -2.0
1109 2.0
1110 -2.0
1111 2.0
1112 -2.0
1113 2.0
1114 -2.0
1115 4.0
1116 2.0
1117 2.0
1118 2.0
1119 2.0
1120 4.0
1121 4.0
1122 4.0
1123 2.0
1124 4.0
1125 2.0
1126 2.0
1127 4.0
1128 -2.0
0.0 # objective constant
1.79769313486232E+308 # value for infinity
0.0 # default variable primal value in starting point
0 # number of non-default variable primal values in starting point
0.0 # default variable bound dual value in starting point
0 # number of non-default variable bound dual values in starting point
0 # number of non-default variable names
0 # number of non-default constraint names
